p edges 217 670
e 1 10
e 1 15
e 1 20
e 1 66
e 1 71
e 1 97
e 1 100
e 1 134
e 1 153
e 1 160
e 1 163
e 1 173
e 1 179
e 1 192
e 1 198
e 2 16
e 2 21
e 2 61
e 2 67
e 2 72
e 2 73
e 2 95
e 2 98
e 2 101
e 2 124
e 2 135
e 2 155
e 2 164
e 2 174
e 2 193
e 2 199
e 3 11
e 3 17
e 3 22
e 3 62
e 3 68
e 3 74
e 3 96
e 3 99
e 3 102
e 3 119
e 3 125
e 3 136
e 3 154
e 3 156
e 3 165
e 3 175
e 3 194
e 3 200
e 3 215
e 4 12
e 4 23
e 4 75
e 4 78
e 4 103
e 4 120
e 4 126
e 4 137
e 4 157
e 4 176
e 4 195
e 4 216
e 5 13
e 5 18
e 5 24
e 5 63
e 5 69
e 5 76
e 5 79
e 5 104
e 5 127
e 5 158
e 5 161
e 5 166
e 5 177
e 5 196
e 5 201
e 5 217
e 6 14
e 6 19
e 6 64
e 6 70
e 6 77
e 6 80
e 6 105
e 6 128
e 6 159
e 6 162
e 6 167
e 6 178
e 6 180
e 6 197
e 6 202
e 7 15
e 7 28
e 8 17
e 8 116
e 8 118
e 9 19
e 9 39
e 9 204
e 10 15
e 10 20
e 10 66
e 10 153
e 10 163
e 10 190
e 11 17
e 11 22
e 11 68
e 11 74
e 11 82
e 11 94
e 11 154
e 11 165
e 12 23
e 12 75
e 12 78
e 12 83
e 12 109
e 13 18
e 13 24
e 13 69
e 13 76
e 13 79
e 13 110
e 13 166
e 13 201
e 14 19
e 14 70
e 14 77
e 14 80
e 14 167
e 14 202
e 15 20
e 15 56
e 15 66
e 15 90
e 15 163
e 15 208
e 16 21
e 16 57
e 16 67
e 16 91
e 16 164
e 16 209
e 17 22
e 17 58
e 17 68
e 17 92
e 17 165
e 17 210
e 18 24
e 18 59
e 18 69
e 18 79
e 18 166
e 18 201
e 19 60
e 19 70
e 19 80
e 19 167
e 19 202
e 20 28
e 20 53
e 20 163
e 20 208
e 21 61
e 21 73
e 21 164
e 21 209
e 22 62
e 22 74
e 22 165
e 22 210
e 23 29
e 23 75
e 23 78
e 24 30
e 24 54
e 24 63
e 24 76
e 24 79
e 24 166
e 24 201
e 25 93
e 25 107
e 25 135
e 25 155
e 25 164
e 25 169
e 25 174
e 26 50
e 26 94
e 26 108
e 26 130
e 26 136
e 26 156
e 26 165
e 26 170
e 26 175
e 26 183
e 26 215
e 27 51
e 27 131
e 27 137
e 27 139
e 27 157
e 27 176
e 27 184
e 27 216
e 29 37
e 29 117
e 30 38
e 30 203
e 31 129
e 31 134
e 31 168
e 31 198
e 32 73
e 32 93
e 32 111
e 32 135
e 32 169
e 32 199
e 33 74
e 33 94
e 33 112
e 33 130
e 33 136
e 33 170
e 33 200
e 34 45
e 34 78
e 34 117
e 34 147
e 35 46
e 35 79
e 35 148
e 36 47
e 36 80
e 36 150
e 37 109
e 37 117
e 38 110
e 38 203
e 39 204
e 40 72
e 40 73
e 40 81
e 40 142
e 41 74
e 41 82
e 41 143
e 41 181
e 42 45
e 42 75
e 42 83
e 42 182
e 43 46
e 43 76
e 43 144
e 44 47
e 44 77
e 44 145
e 45 78
e 45 117
e 45 147
e 46 79
e 46 148
e 47 80
e 47 150
e 48 65
e 48 192
e 49 194
e 49 215
e 50 108
e 50 165
e 50 181
e 50 215
e 51 139
e 51 182
e 51 216
e 52 87
e 52 113
e 53 100
e 53 173
e 53 190
e 53 192
e 53 211
e 54 76
e 54 104
e 54 177
e 54 188
e 54 196
e 54 201
e 54 213
e 55 77
e 55 105
e 55 178
e 55 189
e 55 197
e 55 202
e 55 214
e 56 84
e 56 90
e 56 208
e 57 85
e 57 91
e 57 111
e 57 209
e 58 86
e 58 92
e 58 112
e 58 210
e 59 88
e 59 114
e 59 201
e 59 203
e 60 89
e 60 202
e 60 204
e 61 73
e 61 95
e 61 122
e 61 124
e 62 74
e 62 96
e 62 123
e 62 125
e 63 76
e 63 127
e 64 77
e 64 128
e 65 192
e 66 90
e 66 97
e 66 100
e 66 190
e 66 208
e 67 73
e 67 81
e 67 91
e 67 98
e 67 101
e 67 191
e 67 209
e 68 74
e 68 82
e 68 92
e 68 99
e 68 102
e 68 210
e 69 76
e 69 104
e 69 201
e 70 77
e 70 105
e 70 202
e 71 97
e 71 100
e 71 153
e 71 160
e 71 173
e 71 192
e 72 81
e 72 98
e 72 101
e 72 111
e 72 124
e 72 142
e 72 174
e 72 193
e 73 81
e 73 111
e 73 124
e 73 142
e 73 191
e 74 82
e 74 112
e 74 125
e 74 143
e 75 83
e 75 113
e 75 126
e 76 114
e 76 127
e 76 144
e 76 201
e 77 128
e 77 145
e 77 202
e 78 147
e 78 195
e 78 216
e 79 148
e 79 166
e 79 188
e 79 196
e 79 217
e 80 150
e 80 167
e 80 189
e 80 197
e 81 111
e 81 142
e 81 174
e 81 191
e 82 112
e 82 143
e 82 175
e 82 181
e 83 113
e 83 176
e 83 182
e 84 90
e 85 91
e 85 111
e 85 115
e 86 92
e 86 112
e 86 116
e 87 113
e 87 117
e 87 205
e 88 114
e 88 203
e 88 206
e 89 204
e 89 207
e 90 208
e 91 111
e 91 209
e 92 112
e 92 210
e 93 155
e 93 191
e 94 156
e 94 183
e 100 121
e 100 173
e 101 122
e 101 174
e 102 123
e 102 175
e 103 176
e 104 177
e 104 188
e 105 178
e 105 189
e 106 138
e 106 163
e 106 179
e 106 185
e 107 155
e 107 164
e 108 156
e 108 165
e 108 215
e 111 135
e 111 142
e 111 169
e 111 174
e 111 199
e 112 130
e 112 136
e 112 143
e 112 170
e 112 175
e 112 200
e 113 131
e 113 137
e 113 176
e 114 132
e 114 144
e 114 171
e 114 177
e 114 188
e 114 203
e 115 146
e 115 149
e 116 118
e 117 147
e 117 205
e 119 125
e 119 154
e 119 194
e 120 126
e 120 195
e 121 173
e 122 124
e 122 174
e 123 125
e 123 175
e 124 135
e 124 155
e 124 174
e 124 193
e 124 199
e 125 136
e 125 154
e 125 156
e 125 175
e 125 194
e 125 200
e 125 215
e 126 137
e 126 157
e 126 176
e 126 195
e 126 216
e 127 158
e 127 161
e 127 177
e 127 196
e 127 201
e 127 217
e 128 159
e 128 162
e 128 178
e 128 180
e 128 197
e 128 202
e 129 134
e 129 168
e 129 173
e 130 136
e 130 143
e 130 170
e 130 175
e 131 137
e 131 176
e 132 144
e 132 171
e 132 177
e 132 201
e 133 145
e 133 172
e 133 178
e 133 202
e 134 168
e 134 173
e 134 179
e 134 198
e 135 142
e 135 155
e 135 169
e 135 174
e 135 199
e 136 143
e 136 156
e 136 170
e 136 175
e 136 200
e 136 215
e 137 157
e 137 176
e 137 216
e 138 163
e 138 179
e 138 185
e 139 157
e 139 216
e 140 151
e 140 158
e 140 166
e 140 186
e 140 217
e 141 152
e 141 159
e 141 167
e 141 180
e 141 187
e 142 169
e 142 174
e 142 199
e 143 170
e 143 175
e 143 181
e 143 200
e 144 171
e 144 177
e 144 188
e 145 172
e 145 178
e 145 189
e 146 149
e 151 166
e 151 217
e 152 167
e 155 164
e 155 174
e 155 199
e 156 165
e 156 175
e 156 183
e 156 200
e 156 215
e 157 176
e 157 184
e 157 216
e 158 166
e 158 177
e 158 186
e 158 188
e 158 217
e 159 167
e 159 178
e 159 180
e 159 187
e 159 189
e 160 192
e 161 196
e 162 197
e 163 173
e 163 185
e 164 174
e 165 175
e 165 215
e 166 177
e 166 186
e 166 188
e 166 217
e 167 178
e 167 187
e 167 189
e 168 173
e 168 198
e 169 174
e 169 199
e 170 175
e 170 200
e 171 177
e 171 201
e 172 178
e 172 202
e 173 185
e 177 186
e 177 188
e 177 201
e 178 187
e 178 189
e 178 202
e 179 185
e 179 198
e 180 187
e 186 188
e 186 217
e 187 189
e 188 196
e 188 217
e 189 197
e 190 211
e 191 212
e 192 211
e 193 212
e 194 215
e 195 216
e 196 201
e 196 213
e 196 217
e 197 202
e 197 214
e 200 215
e 201 203
e 201 213
e 202 204
e 202 214
e 203 206
e 204 207
w 1 34
w 2 148
w 3 271
w 4 173
w 5 186
w 6 186
w 7 589
w 8 243
w 9 166
w 10 243
w 11 306
w 12 206
w 13 121
w 14 121
w 15 283
w 16 283
w 17 33
w 18 199
w 19 199
w 20 213
w 21 213
w 22 166
w 23 203
w 24 203
w 25 377
w 26 284
w 27 337
w 28 410
w 29 423
w 30 166
w 31 245
w 32 377
w 33 377
w 34 211
w 35 453
w 36 335
w 37 333
w 38 333
w 39 333
w 40 185
w 41 267
w 42 283
w 43 131
w 44 131
w 45 372
w 46 372
w 47 254
w 48 442
w 49 557
w 50 399
w 51 600
w 52 250
w 53 139
w 54 430
w 55 430
w 56 133
w 57 133
w 58 133
w 59 300
w 60 300
w 61 498
w 62 422
w 63 39
w 64 39
w 65 278
w 66 133
w 67 133
w 68 133
w 69 300
w 70 300
w 71 541
w 72 458
w 73 139
w 74 139
w 75 410
w 76 155
w 77 155
w 78 415
w 79 173
w 80 410
w 81 349
w 82 267
w 83 382
w 84 132
w 85 132
w 86 49
w 87 351
w 88 166
w 89 166
w 90 333
w 91 333
w 92 333
w 93 622
w 94 377
w 95 346
w 96 306
w 97 278
w 98 360
w 99 360
w 100 95
w 101 349
w 102 382
w 103 33
w 104 86
w 105 53
w 106 375
w 107 245
w 108 378
w 109 396
w 110 603
w 111 400
w 112 483
w 113 82
w 114 33
w 115 378
w 116 378
w 117 243
w 118 378
w 119 502
w 120 497
w 121 426
w 122 286
w 123 286
w 124 114
w 125 114
w 126 143
w 127 313
w 128 313
w 129 131
w 130 1
w 131 1
w 132 433
w 133 433
w 134 406
w 135 274
w 136 192
w 137 126
w 138 129
w 139 105
w 140 382
w 141 382
w 142 131
w 143 131
w 144 367
w 145 367
w 146 497
w 147 130
w 148 372
w 149 124
w 150 254
w 151 483
w 152 516
w 153 146
w 154 111
w 155 377
w 156 4
w 157 157
w 158 230
w 159 230
w 160 146
w 161 426
w 162 426
w 163 225
w 164 355
w 165 221
w 166 115
w 167 82
w 168 324
w 169 324
w 170 324
w 171 13
w 172 13
w 173 138
w 174 23
w 175 197
w 176 534
w 177 53
w 178 53
w 179 342
w 180 269
w 181 600
w 182 399
w 183 337
w 184 112
w 185 152
w 186 117
w 187 117
w 188 483
w 189 516
w 190 622
w 191 377
w 192 278
w 193 278
w 194 111
w 195 184
w 196 73
w 197 73
w 198 216
w 199 85
w 200 85
w 201 500
w 202 500
w 203 500
w 204 500
w 205 207
w 206 207
w 207 207
w 208 250
w 209 250
w 210 500
w 211 237
w 212 622
w 213 69
w 214 69
w 215 331
w 216 399
w 217 269
n 1 xAntCul_Day_2_P_1
n 2 xAntCul_Day_2_P_2
n 3 xAntCul_Day_2_P_3
n 4 xAntCul_Day_2_P_4
n 5 xAntCul_Day_2_P_5
n 6 xAntCul_Day_2_P_6
n 7 xArcClaCS_Day_2_P_1
n 8 xArcClaCS_Day_2_P_3
n 9 xArcClaCS_Day_2_P_6
n 10 xArcCla1_Day_2_P_1
n 11 xArcCla1_Day_2_P_3
n 12 xArcCla1_Day_2_P_4
n 13 xArcCla1_Day_2_P_5
n 14 xArcCla1_Day_2_P_6
n 15 xArcCla2_Day_2_P_1
n 16 xArcCla2_Day_2_P_2
n 17 xArcCla2_Day_2_P_3
n 18 xArcCla2_Day_2_P_5
n 19 xArcCla2_Day_2_P_6
n 20 xArcCriMed_Day_2_P_1
n 21 xArcCriMed_Day_2_P_2
n 22 xArcCriMed_Day_2_P_3
n 23 xArcCriMed_Day_2_P_4
n 24 xArcCriMed_Day_2_P_5
n 25 xArcStoArtMus_Day_2_P_2
n 26 xArcStoArtMus_Day_2_P_3
n 27 xArcStoArtMus_Day_2_P_4
n 28 xArcMedCS_Day_2_P_1
n 29 xArcMedCS_Day_2_P_4
n 30 xArcMedCS_Day_2_P_5
n 31 xArchiv_Day_2_P_1
n 32 xArchiv_Day_2_P_2
n 33 xArchiv_Day_2_P_3
n 34 xArchivCS_Day_2_P_4
n 35 xArchivCS_Day_2_P_5
n 36 xArchivCS_Day_2_P_6
n 37 xBioarcCS_Day_2_P_4
n 38 xBioarcCS_Day_2_P_5
n 39 xBioarcCS_Day_2_P_6
n 40 xCodico_Day_2_P_2
n 41 xCodico_Day_2_P_3
n 42 xCodico_Day_2_P_4
n 43 xCodico_Day_2_P_5
n 44 xCodico_Day_2_P_6
n 45 xCodicoCS_Day_2_P_4
n 46 xCodicoCS_Day_2_P_5
n 47 xCodicoCS_Day_2_P_6
n 48 xEcoAzi_Day_2_P_1
n 49 xEcoAzi_Day_2_P_3
n 50 xEleInfSciCatBenCulM3_Day_2_P_3
n 51 xEleInfSciCatBenCulM3_Day_2_P_4
n 52 xEpiLat_Day_2_P_4
n 53 xEsteti_Day_2_P_1
n 54 xEsteti_Day_2_P_5
n 55 xEsteti_Day_2_P_6
n 56 xFilCla2_Day_2_P_1
n 57 xFilCla2_Day_2_P_2
n 58 xFilCla2_Day_2_P_3
n 59 xFilCla2_Day_2_P_5
n 60 xFilCla2_Day_2_P_6
n 61 xFonSoc_Day_2_P_2
n 62 xFonSoc_Day_2_P_3
n 63 xFonSoc_Day_2_P_5
n 64 xFonSoc_Day_2_P_6
n 65 xGeoTur_Day_2_P_1
n 66 xGlotto_Day_2_P_1
n 67 xGlotto_Day_2_P_2
n 68 xGlotto_Day_2_P_3
n 69 xGlotto_Day_2_P_5
n 70 xGlotto_Day_2_P_6
n 71 xInfDoc_Day_2_P_1
n 72 xInfDoc_Day_2_P_2
n 73 xItaScr_Day_2_P_2
n 74 xItaScr_Day_2_P_3
n 75 xItaScr_Day_2_P_4
n 76 xItaScr_Day_2_P_5
n 77 xItaScr_Day_2_P_6
n 78 xLegBenCul2_Day_2_P_4
n 79 xLegBenCul2_Day_2_P_5
n 80 xLegBenCul2_Day_2_P_6
n 81 xLinLetGre1_Day_2_P_2
n 82 xLinLetGre1_Day_2_P_3
n 83 xLinLetGre1_Day_2_P_4
n 84 xLinLetLatCS_Day_2_P_1
n 85 xLinLetLatCS_Day_2_P_2
n 86 xLinLetLatCS_Day_2_P_3
n 87 xLinLetLatCS_Day_2_P_4
n 88 xLinLetLatCS_Day_2_P_5
n 89 xLinLetLatCS_Day_2_P_6
n 90 xLinLetLat2_Day_2_P_1
n 91 xLinLetLat2_Day_2_P_2
n 92 xLinLetLat2_Day_2_P_3
n 93 xLinLatB_Day_2_P_2
n 94 xLinLatB_Day_2_P_3
n 95 xLinGen_Day_2_P_2
n 96 xLinGen_Day_2_P_3
n 97 xMatTecAppArcM3_Day_2_P_1
n 98 xMatTecAppArcM3_Day_2_P_2
n 99 xMatTecAppArcM3_Day_2_P_3
n 100 xMatCarCosResEdiSto_Day_2_P_1
n 101 xMatCarCosResEdiSto_Day_2_P_2
n 102 xMatCarCosResEdiSto_Day_2_P_3
n 103 xMatCarCosResEdiSto_Day_2_P_4
n 104 xMatCarCosResEdiSto_Day_2_P_5
n 105 xMatCarCosResEdiSto_Day_2_P_6
n 106 xMetRicStoArt_Day_2_P_1
n 107 xMetRicStoArt_Day_2_P_2
n 108 xMetRicStoArt_Day_2_P_3
n 109 xPaleoa_Day_2_P_4
n 110 xPaleoa_Day_2_P_5
n 111 xPalLat_Day_2_P_2
n 112 xPalLat_Day_2_P_3
n 113 xPalLat_Day_2_P_4
n 114 xPalLat_Day_2_P_5
n 115 xPapiroCS_Day_2_P_2
n 116 xPapiroCS_Day_2_P_3
n 117 xPapiroCS_Day_2_P_4
n 118 xProMedCS_Day_2_P_3
n 119 xPsiTur_Day_2_P_3
n 120 xPsiTur_Day_2_P_4
n 121 xSocArt_Day_2_P_1
n 122 xSocArt_Day_2_P_2
n 123 xSocArt_Day_2_P_3
n 124 xSociol1_Day_2_P_2
n 125 xSociol1_Day_2_P_3
n 126 xSociol1_Day_2_P_4
n 127 xSociol1_Day_2_P_5
n 128 xSociol1_Day_2_P_6
n 129 xStoConCS_Day_2_P_1
n 130 xStoConCS_Day_2_P_3
n 131 xStoConCS_Day_2_P_4
n 132 xStoConCS_Day_2_P_5
n 133 xStoConCS_Day_2_P_6
n 134 xStoAntStaItaCS_Day_2_P_1
n 135 xStoAntStaItaCS_Day_2_P_2
n 136 xStoAntStaItaCS_Day_2_P_3
n 137 xStoAntStaItaCS_Day_2_P_4
n 138 xStoDisGra_Day_2_P_1
n 139 xStoDisGra_Day_2_P_4
n 140 xStoDisGra_Day_2_P_5
n 141 xStoDisGra_Day_2_P_6
n 142 xStoLibSta_Day_2_P_2
n 143 xStoLibSta_Day_2_P_3
n 144 xStoLibSta_Day_2_P_5
n 145 xStoLibSta_Day_2_P_6
n 146 xStoLibStaCSM1_Day_2_P_2
n 147 xStoLibStaCSM1_Day_2_P_4
n 148 xStoLibStaCSM1_Day_2_P_5
n 149 xStoLibStaCSM2_Day_2_P_2
n 150 xStoLibStaCSM2_Day_2_P_6
n 151 xStoRes_Day_2_P_5
n 152 xStoRes_Day_2_P_6
n 153 xStoArc_Day_2_P_1
n 154 xStoArc_Day_2_P_3
n 155 xStoArcMed_Day_2_P_2
n 156 xStoArcMed_Day_2_P_3
n 157 xStoArcMed_Day_2_P_4
n 158 xStoArcMed_Day_2_P_5
n 159 xStoArcMed_Day_2_P_6
n 160 xStoArt_Day_2_P_1
n 161 xStoArt_Day_2_P_5
n 162 xStoArt_Day_2_P_6
n 163 xStoCriArt_Day_2_P_1
n 164 xStoCriArt_Day_2_P_2
n 165 xStoCriArt_Day_2_P_3
n 166 xStoCriArt_Day_2_P_5
n 167 xStoCriArt_Day_2_P_6
n 168 xStoFilCS_Day_2_P_1
n 169 xStoFilCS_Day_2_P_2
n 170 xStoFilCS_Day_2_P_3
n 171 xStoFilCS_Day_2_P_5
n 172 xStoFilCS_Day_2_P_6
n 173 xStoMus_Day_2_P_1
n 174 xStoMus_Day_2_P_2
n 175 xStoMus_Day_2_P_3
n 176 xStoMus_Day_2_P_4
n 177 xStoMus_Day_2_P_5
n 178 xStoMus_Day_2_P_6
n 179 xStoProArtCulMatMed_Day_2_P_1
n 180 xStoProArtCulMatMed_Day_2_P_6
n 181 xStoBib_Day_2_P_3
n 182 xStoBib_Day_2_P_4
n 183 xStoTecArtM12_Day_2_P_3
n 184 xStoTecArtM12_Day_2_P_4
n 185 xStoTecArtCS_Day_2_P_1
n 186 xStoTecArtCS_Day_2_P_5
n 187 xStoTecArtCS_Day_2_P_6
n 188 xStoTecFot_Day_2_P_5
n 189 xStoTecFot_Day_2_P_6
n 190 xStoGre_Day_2_P_1
n 191 xStoGre_Day_2_P_2
n 192 xStoMed2_Day_2_P_1
n 193 xStoMed2_Day_2_P_2
n 194 xStoMed2_Day_2_P_3
n 195 xStoMed2_Day_2_P_4
n 196 xStoMed2_Day_2_P_5
n 197 xStoMed2_Day_2_P_6
n 198 xStoModCS_Day_2_P_1
n 199 xStoModCS_Day_2_P_2
n 200 xStoModCS_Day_2_P_3
n 201 xStoRom_Day_2_P_5
n 202 xStoRom_Day_2_P_6
n 203 xStoRomCS_Day_2_P_5
n 204 xStoRomCS_Day_2_P_6
n 205 xTedUma_Day_2_P_4
n 206 xTedUma_Day_2_P_5
n 207 xTedUma_Day_2_P_6
n 208 xTopRilMonAnt_Day_2_P_1
n 209 xTopRilMonAnt_Day_2_P_2
n 210 xTopRilMonAnt_Day_2_P_3
n 211 xFilTeo_Day_2_P_1
n 212 xFilTeo_Day_2_P_2
n 213 xFilTeo_Day_2_P_5
n 214 xFilTeo_Day_2_P_6
n 215 xStoColIstMus_Day_2_P_3
n 216 xStoColIstMus_Day_2_P_4
n 217 xStoColIstMus_Day_2_P_5
o 1 1
o 2 2
o 3 3
o 4 4
o 5 5
o 6 6
o 7 7
o 8 9
o 9 12
o 10 13
o 11 15
o 12 16
o 13 17
o 14 18
o 15 19
o 16 20
o 17 21
o 18 23
o 19 24
o 20 25
o 21 26
o 22 27
o 23 28
o 24 29
o 25 34
o 26 35
o 27 36
o 28 39
o 29 42
o 30 43
o 31 45
o 32 46
o 33 47
o 34 48
o 35 49
o 36 50
o 37 51
o 38 52
o 39 53
o 40 60
o 41 61
o 42 62
o 43 63
o 44 64
o 45 67
o 46 68
o 47 69
o 48 70
o 49 72
o 50 76
o 51 77
o 52 81
o 53 84
o 54 86
o 55 87
o 56 94
o 57 95
o 58 96
o 59 98
o 60 99
o 61 101
o 62 102
o 63 104
o 64 105
o 65 106
o 66 118
o 67 119
o 68 120
o 69 122
o 70 123
o 71 124
o 72 125
o 73 129
o 74 130
o 75 131
o 76 132
o 77 133
o 78 140
o 79 141
o 80 142
o 81 143
o 82 144
o 83 145
o 84 146
o 85 147
o 86 148
o 87 149
o 88 150
o 89 151
o 90 152
o 91 153
o 92 154
o 93 171
o 94 172
o 95 177
o 96 178
o 97 188
o 98 189
o 99 190
o 100 194
o 101 195
o 102 196
o 103 197
o 104 198
o 105 199
o 106 200
o 107 201
o 108 202
o 109 205
o 110 206
o 111 208
o 112 209
o 113 210
o 114 211
o 115 213
o 116 214
o 117 215
o 118 219
o 119 221
o 120 222
o 121 225
o 122 226
o 123 227
o 124 232
o 125 233
o 126 234
o 127 235
o 128 236
o 129 237
o 130 239
o 131 240
o 132 241
o 133 242
o 134 243
o 135 244
o 136 245
o 137 246
o 138 249
o 139 252
o 140 253
o 141 254
o 142 256
o 143 257
o 144 259
o 145 260
o 146 262
o 147 264
o 148 265
o 149 268
o 150 272
o 151 273
o 152 274
o 153 275
o 154 277
o 155 286
o 156 287
o 157 288
o 158 289
o 159 290
o 160 291
o 161 295
o 162 296
o 163 297
o 164 298
o 165 299
o 166 301
o 167 302
o 168 303
o 169 304
o 170 305
o 171 307
o 172 308
o 173 309
o 174 310
o 175 311
o 176 312
o 177 313
o 178 314
o 179 315
o 180 320
o 181 323
o 182 324
o 183 327
o 184 328
o 185 332
o 186 336
o 187 337
o 188 338
o 189 339
o 190 340
o 191 341
o 192 342
o 193 343
o 194 344
o 195 345
o 196 346
o 197 347
o 198 348
o 199 349
o 200 350
o 201 354
o 202 355
o 203 356
o 204 357
o 205 361
o 206 362
o 207 363
o 208 364
o 209 365
o 210 366
o 211 1346
o 212 1347
o 213 1350
o 214 1351
o 215 1353
o 216 1354
o 217 1355
